NAME          
ROWS
 N  OBJ
 L  c1
 L  c2
COLUMNS
    MARKER    'MARKER'                 'INTORG'
    x[1]      c1        686
    x[1]      c2        7
    x[1]      OBJ       -852
    x[2]      c1        50
    x[2]      c2        253
    x[2]      OBJ       -700
    x[3]      c1        806
    x[3]      c2        770
    x[3]      OBJ       -66
    x[4]      c1        394
    x[4]      c2        792
    x[4]      OBJ       -992
    x[5]      c1        573
    x[5]      c2        137
    x[5]      OBJ       -942
    x[6]      c1        431
    x[6]      c2        822
    x[6]      OBJ       -990
    x[7]      c1        696
    x[7]      c2        863
    x[7]      OBJ       -250
    x[8]      c1        273
    x[8]      c2        538
    x[8]      OBJ       -461
    x[9]      c1        821
    x[9]      c2        465
    x[9]      OBJ       -470
    x[10]     c1        759
    x[10]     c2        699
    x[10]     OBJ       -713
    x[11]     c1        404
    x[11]     c2        109
    x[11]     OBJ       -148
    x[12]     c1        290
    x[12]     c2        154
    x[12]     OBJ       -9
    x[13]     c1        913
    x[13]     c2        733
    x[13]     OBJ       -317
    x[14]     c1        531
    x[14]     c2        57
    x[14]     OBJ       -247
    x[15]     c1        356
    x[15]     c2        94
    x[15]     OBJ       -545
    x[16]     c1        515
    x[16]     c2        606
    x[16]     OBJ       -787
    x[17]     c1        20
    x[17]     c2        419
    x[17]     OBJ       -912
    x[18]     c1        931
    x[18]     c2        662
    x[18]     OBJ       -713
    x[19]     c1        472
    x[19]     c2        13
    x[19]     OBJ       -304
    x[20]     c1        16
    x[20]     c2        707
    x[20]     OBJ       -820
    x[21]     c1        727
    x[21]     c2        928
    x[21]     OBJ       -657
    x[22]     c1        54
    x[22]     c2        100
    x[22]     OBJ       -517
    x[23]     c1        690
    x[23]     c2        560
    x[23]     OBJ       -301
    x[24]     c1        681
    x[24]     c2        98
    x[24]     OBJ       -943
    x[25]     c1        418
    x[25]     c2        816
    x[25]     OBJ       -435
    x[26]     c1        913
    x[26]     c2        197
    x[26]     OBJ       -156
    x[27]     c1        438
    x[27]     c2        126
    x[27]     OBJ       -366
    x[28]     c1        685
    x[28]     c2        675
    x[28]     OBJ       -424
    x[29]     c1        317
    x[29]     c2        51
    x[29]     OBJ       -141
    x[30]     c1        945
    x[30]     c2        997
    x[30]     OBJ       -18
    x[31]     c1        255
    x[31]     c2        366
    x[31]     OBJ       -489
    x[32]     c1        724
    x[32]     c2        389
    x[32]     OBJ       -215
    x[33]     c1        258
    x[33]     c2        437
    x[33]     OBJ       -372
    x[34]     c1        363
    x[34]     c2        847
    x[34]     OBJ       -504
    x[35]     c1        664
    x[35]     c2        299
    x[35]     OBJ       -310
RHS
    rhs       c1        9034
    rhs       c2        7893
RANGES
BOUNDS
 BV bounds    x[1]
 BV bounds    x[2]
 BV bounds    x[3]
 BV bounds    x[4]
 BV bounds    x[5]
 BV bounds    x[6]
 BV bounds    x[7]
 BV bounds    x[8]
 BV bounds    x[9]
 BV bounds    x[10]
 BV bounds    x[11]
 BV bounds    x[12]
 BV bounds    x[13]
 BV bounds    x[14]
 BV bounds    x[15]
 BV bounds    x[16]
 BV bounds    x[17]
 BV bounds    x[18]
 BV bounds    x[19]
 BV bounds    x[20]
 BV bounds    x[21]
 BV bounds    x[22]
 BV bounds    x[23]
 BV bounds    x[24]
 BV bounds    x[25]
 BV bounds    x[26]
 BV bounds    x[27]
 BV bounds    x[28]
 BV bounds    x[29]
 BV bounds    x[30]
 BV bounds    x[31]
 BV bounds    x[32]
 BV bounds    x[33]
 BV bounds    x[34]
 BV bounds    x[35]
ENDATA
